2
32
48
40	28
1	2	21	3	19	3	
2	1	5	9	
3	2	7	12	15	9	
4	2	7	10	28	3	
5	1	18	5	
6	1	6	10	
7	2	6	11	28	3	
8	1	13	9	
9	2	13	5	10	5	
10	2	5	14	8	4	
11	2	8	13	27	2	
12	1	18	8	
13	2	10	9	12	5	
14	2	4	12	24	4	
15	1	26	3	
16	1	9	9	
17	1	6	7	
18	1	9	9	
19	1	7	15	
20	1	11	7	
21	1	10	8	
22	2	6	17	12	7	
23	1	5	9	
24	1	17	6	
25	2	19	5	17	3	
26	2	19	4	21	2	
27	1	19	4	
28	2	7	15	16	3	
29	1	8	7	
30	2	6	15	4	15	
31	2	23	4	21	2	
32	2	14	8	18	2	
